cantSalas = 7;
cantRamos = 97;
bloques = [1, 1, 2, 1, 2, 1, 2, 2, 2, 2, 1, 1, 1, 1, 1, 1, 2, 1, 2, 2, 2, 2, 1, 1, 1, 1, 1, 1, 1, 1, 1, 1, 2, 2, 1, 1, 2, 1, 1, 1, 1, 2, 1, 1, 2, 1, 2, 2, 2, 1, 1, 1, 1, 1, 1, 2, 1, 1, 2, 1, 2, 1, 1, 1, 1, 1, 2, 1, 2, 2, 2, 1, 2, 2, 2, 1, 1, 1, 1, 2, 1, 1, 1, 1, 1, 2, 2, 1, 1, 2, 2, 1, 1, 1, 1, 1, 1];
capacidad = [54, 62, 79, 48, 75, 71, 59];
prioridad = [10, 2, 5, 2, 1, 8, 5, 3, 4, 2, 10, 4, 3, 5, 1, 8, 3, 1, 4, 5, 8, 3, 4, 3, 1, 9, 4, 4, 2, 1, 8, 2, 1, 3, 1, 8, 2, 3, 4, 5, 6, 1, 3, 2, 4, 6, 2, 1, 3, 1, 7, 3, 2, 2, 5, 10, 1, 4, 3, 2, 9, 2, 1, 2, 3, 8, 5, 3, 2, 1, 10, 2, 3, 4, 4, 7, 2, 5, 1, 1, 10, 2, 2, 4, 4, 10, 2, 4, 4, 2, 8, 1, 5, 3, 3, 6, 4];
interes = [61, 65, 45, 42, 47, 46, 53, 66, 45, 56, 59, 45, 58, 79, 42, 55, 58, 43, 76, 75, 75, 70, 42, 78, 57, 50, 47, 60, 46, 40, 74, 53, 73, 42, 59, 56, 54, 77, 62, 41, 53, 57, 66, 67, 73, 76, 78, 75, 63, 75, 64, 65, 46, 66, 48, 64, 41, 65, 67, 64, 73, 41, 66, 54, 54, 54, 72, 79, 49, 69, 55, 71, 63, 73, 78, 74, 64, 56, 47, 72, 78, 70, 40, 61, 75, 78, 65, 66, 73, 69, 76, 71, 52, 56, 45, 76, 47];
disponibilidad = array2d(1..cantRamos, 1..35, [
  true, false, true, true, false, true, false, true, true, true, true, true, false, true, false, true, false, true, true, true, false, true, true, true, true, true, false, true, true, false, true, true, false, true, true,
  true, true, false, true, true, true, false, false, true, false, true, true, true, true, true, false, true, true, true, false, false, true, true, true, true, true, false, true, true, false, false, true, true, false, false,
  false, true, false, false, false, true, true, true, false, false, true, true, false, true, false, true, true, false, false, false, false, true, false, false, true, true, false, true, true, false, true, true, false, false, true,
  false, false, true, true, false, true, false, false, false, false, false, true, false, true, false, true, false, false, false, true, false, true, true, false, true, true, false, true, true, true, false, false, true, true, true,
  false, false, false, true, false, false, true, true, true, true, true, true, false, true, false, true, true, false, false, true, false, true, true, true, false, true, true, true, false, false, true, true, false, true, true,
  true, true, false, true, true, true, true, true, true, true, true, true, true, true, true, true, false, true, true, true, true, false, true, true, false, true, true, false, true, true, true, true, false, false, true,
  false, true, false, false, false, false, true, false, true, true, false, true, true, true, true, false, true, false, true, false, true, false, true, true, true, true, true, true, true, false, true, true, true, false, false,
  false, true, false, false, true, false, false, true, false, true, false, true, false, true, false, false, true, true, false, true, false, true, false, true, false, true, false, false, false, false, true, false, false, true, false,
  false, true, false, false, false, false, false, false, true, false, true, false, true, false, false, true, false, true, true, true, true, false, true, false, false, true, true, true, false, true, true, false, true, true, true,
  true, true, true, true, true, true, false, true, true, false, true, false, true, false, true, true, true, false, false, false, true, true, true, false, true, false, true, false, true, true, true, true, true, true, true,
  true, false, false, false, true, true, true, true, true, true, false, true, true, true, true, true, true, true, false, false, false, true, true, true, true, false, true, false, true, true, false, true, true, false, true,
  true, true, true, true, false, false, true, true, false, true, true, false, true, true, false, true, true, false, false, true, true, true, false, false, false, false, true, true, true, true, true, true, true, false, true,
  false, true, true, true, true, false, true, false, false, false, true, false, false, true, false, true, true, false, true, false, false, true, true, true, false, true, true, true, false, false, true, true, false, true, true,
  false, false, false, false, true, true, false, true, false, true, true, true, false, true, true, true, true, false, true, true, true, false, false, false, true, true, true, true, true, false, true, false, true, true, false,
  true, false, true, true, false, false, true, false, false, true, true, false, true, false, false, true, true, true, true, true, false, true, true, false, true, true, true, false, true, true, true, true, false, true, true,
  true, true, true, false, true, false, true, false, false, true, false, false, true, true, false, false, true, false, false, false, true, true, true, true, true, false, true, true, true, false, true, true, false, false, true,
  true, true, false, false, false, true, true, true, false, true, true, true, false, true, false, true, true, true, false, true, false, false, false, true, true, false, true, false, true, false, true, true, true, false, true,
  true, false, true, true, false, false, true, false, true, false, true, true, false, true, false, false, false, false, true, true, false, true, false, false, false, false, true, true, true, false, true, false, true, true, false,
  true, true, false, false, false, false, true, true, false, true, true, false, false, false, true, false, true, true, false, false, false, false, true, true, false, true, true, false, true, false, true, false, false, false, true,
  true, false, false, true, true, true, false, true, true, false, true, true, true, true, true, true, true, false, false, false, true, true, false, true, true, false, true, true, true, true, false, true, true, true, true,
  true, true, true, false, false, false, true, false, false, true, true, false, true, false, false, true, true, false, false, false, true, true, false, true, true, false, false, false, false, false, true, false, true, true, false,
  true, true, false, false, false, true, false, false, true, false, false, false, true, false, false, true, false, true, false, true, true, false, false, false, true, false, true, true, true, false, true, false, false, false, true,
  true, true, true, true, true, true, false, true, false, false, true, false, true, true, false, false, false, true, true, true, false, false, true, true, true, true, true, false, true, true, false, true, true, true, true,
  false, true, false, false, true, true, false, false, false, true, true, true, false, true, false, true, false, true, false, true, false, true, false, false, true, false, false, false, true, false, false, true, false, false, true,
  false, true, true, false, true, false, true, true, true, true, false, true, false, true, false, true, false, false, true, true, true, false, false, false, true, true, true, true, false, true, false, true, false, false, false,
  false, true, false, false, true, false, true, true, false, true, true, true, false, false, false, true, true, true, true, true, true, false, false, false, true, true, false, false, true, true, false, true, true, true, false,
  true, false, true, false, true, false, false, true, false, false, false, false, true, true, true, false, false, true, true, true, true, true, false, false, false, true, true, false, false, false, true, false, true, false, false,
  true, true, false, true, true, true, true, true, true, true, true, false, true, false, true, true, true, false, true, false, true, false, false, true, false, true, false, true, true, true, true, true, true, true, true,
  true, false, true, true, true, true, true, true, true, false, true, true, true, true, true, true, true, true, true, false, true, true, false, true, false, true, false, true, true, true, true, true, true, false, true,
  false, false, true, false, false, true, false, false, true, true, true, true, false, false, false, false, false, true, false, false, true, false, true, true, false, true, true, false, false, true, false, false, true, false, false,
  true, true, false, true, true, true, false, true, false, true, true, true, true, true, false, false, true, false, true, true, false, true, true, true, false, true, true, true, true, false, true, true, true, true, true,
  true, true, true, true, true, true, false, true, true, true, false, false, true, true, false, true, true, true, false, false, false, false, false, true, false, true, true, true, false, true, true, true, false, true, true,
  false, true, true, false, false, false, false, false, true, false, true, false, false, true, false, false, false, true, false, false, true, false, true, true, true, true, false, false, false, true, true, false, false, true, false,
  true, false, false, true, true, true, false, true, true, true, false, true, false, false, true, true, false, false, false, true, false, false, false, false, true, true, false, false, true, false, true, false, true, true, false,
  true, true, true, false, true, false, true, false, true, true, false, false, true, false, true, false, true, true, false, true, true, false, false, false, true, false, true, true, false, false, true, true, true, false, false,
  true, true, false, false, false, true, false, false, true, false, false, false, false, true, true, false, true, false, false, true, false, false, true, true, false, false, true, false, false, false, true, true, true, true, false,
  true, false, false, true, true, true, true, false, true, true, true, true, true, true, false, true, true, false, true, true, false, true, true, true, false, true, true, true, false, true, true, false, true, false, true,
  true, false, true, true, true, true, true, true, true, true, false, true, true, true, true, true, true, false, true, false, true, true, true, true, true, false, false, false, true, true, true, true, true, true, true,
  true, true, false, true, true, true, false, false, false, true, true, true, true, false, true, false, false, true, false, false, true, true, true, false, true, false, false, false, true, false, true, true, false, true, false,
  false, false, true, false, true, true, true, true, true, true, true, false, true, false, false, false, true, true, true, true, true, false, true, false, true, true, true, true, false, true, true, false, true, false, true,
  false, true, true, true, false, false, true, true, true, true, true, true, true, true, true, true, true, true, true, true, true, true, true, false, true, true, true, true, false, true, false, false, true, false, false,
  true, true, false, true, true, true, false, false, true, true, true, true, true, true, true, true, true, true, true, true, true, false, false, true, true, true, false, true, true, false, false, true, true, true, true,
  false, false, true, true, true, true, false, false, false, false, false, true, true, true, true, true, true, false, false, true, true, true, false, true, true, true, false, false, true, false, true, false, true, true, false,
  false, true, true, false, true, true, true, true, false, true, true, true, false, true, true, true, false, false, true, false, false, false, false, false, true, true, false, true, false, true, true, true, false, true, false,
  true, false, false, true, false, true, true, false, false, false, true, true, true, false, false, true, false, true, true, true, false, true, false, false, false, true, false, false, true, false, true, false, false, false, false,
  false, true, true, true, true, false, true, false, false, false, false, false, true, true, true, true, true, true, true, true, false, true, false, true, true, true, true, true, false, false, false, false, false, false, true,
  true, true, true, true, true, false, false, true, true, true, true, true, false, true, true, true, false, true, true, true, true, true, true, false, false, true, true, true, true, true, true, true, false, true, true,
  true, true, false, true, true, true, true, false, true, true, true, true, true, false, true, true, true, true, true, false, false, true, true, true, true, true, true, true, false, true, false, true, true, true, true,
  false, true, false, false, true, false, true, true, true, false, false, true, true, false, true, true, true, true, true, true, false, true, true, true, false, false, true, true, true, true, true, true, true, true, false,
  true, false, true, true, true, true, true, false, false, false, true, true, false, true, true, true, true, false, false, false, true, true, true, true, true, true, true, true, false, false, true, false, false, true, false,
  false, true, true, false, true, true, true, false, false, true, true, true, false, true, false, false, true, false, true, true, true, true, false, true, false, true, true, true, false, true, true, true, true, true, false,
  true, false, false, true, false, true, true, false, false, false, false, false, false, false, false, true, false, false, true, true, true, false, true, true, true, true, false, false, false, false, false, false, true, true, false,
  true, true, true, true, false, true, false, false, true, false, true, false, false, true, true, false, false, false, false, false, false, true, true, true, true, false, false, false, false, true, true, true, true, true, false,
  false, true, true, true, true, true, true, true, true, false, true, false, true, true, true, true, true, false, true, false, true, true, true, true, false, true, false, true, true, true, true, true, true, true, true,
  false, true, true, false, true, true, true, true, true, true, true, true, true, true, false, false, true, true, true, true, false, true, false, false, false, true, true, false, true, true, true, true, true, false, true,
  true, true, true, true, false, true, true, true, true, false, true, true, false, true, false, true, false, true, true, true, false, true, true, false, false, false, true, false, false, true, true, true, false, false, true,
  true, false, false, false, true, true, true, true, true, true, true, true, true, true, true, true, true, true, false, false, true, true, true, true, true, true, true, true, true, true, false, false, true, true, true,
  false, false, false, false, true, false, true, true, false, true, true, true, true, true, false, false, true, false, false, false, true, true, true, false, true, false, true, false, true, false, false, true, false, true, true,
  true, true, true, false, false, true, false, false, false, true, true, true, false, true, false, false, true, false, true, true, false, true, false, true, false, true, true, true, true, true, false, true, true, false, false,
  false, false, false, true, false, false, false, true, false, true, true, true, true, true, true, true, true, true, false, true, true, false, true, true, true, true, false, true, false, true, true, true, false, true, true,
  false, false, false, true, true, false, true, false, false, false, false, true, true, false, false, true, false, true, true, true, true, true, true, true, true, true, false, false, true, true, false, true, true, true, false,
  true, false, false, true, false, true, false, true, false, false, false, true, false, true, false, false, true, true, false, false, false, true, false, false, false, true, false, true, false, false, true, true, true, false, true,
  true, false, true, false, false, false, false, false, false, false, true, false, false, true, true, false, false, true, false, true, false, false, true, true, true, true, true, true, true, false, true, false, true, true, false,
  false, false, true, false, false, true, false, false, false, false, false, true, false, false, false, false, true, false, true, true, true, true, false, false, false, true, false, true, false, true, true, false, true, true, false,
  false, true, false, true, false, false, true, false, true, false, false, true, true, true, true, true, false, true, true, false, true, false, true, false, true, true, true, false, true, true, false, true, false, true, false,
  true, true, false, true, false, true, false, true, true, true, false, true, true, true, false, true, true, false, true, true, true, false, true, true, true, true, true, false, true, false, true, true, true, true, true,
  true, false, true, false, true, false, true, true, false, true, false, false, false, true, false, false, false, false, true, false, false, false, true, true, true, false, true, true, false, false, false, false, true, true, false,
  true, true, true, true, true, true, true, true, false, true, true, true, false, true, true, true, true, true, true, false, false, true, true, true, true, true, true, true, true, true, false, false, true, false, false,
  false, false, true, true, false, true, false, true, false, false, true, true, true, true, false, true, false, true, false, false, true, true, true, true, true, true, true, true, true, true, true, true, true, true, true,
  true, false, true, true, true, true, true, true, true, true, false, false, true, true, true, true, false, false, true, true, true, true, true, false, true, true, true, true, true, true, false, true, true, true, true,
  false, false, true, false, true, true, true, true, false, false, false, false, false, true, true, true, true, true, false, false, false, true, false, true, false, false, false, true, true, true, true, true, false, true, true,
  true, true, false, false, false, true, true, true, false, false, true, false, true, false, false, true, true, false, true, false, false, false, true, true, false, false, true, true, false, false, true, true, true, false, false,
  false, false, false, false, true, true, true, true, false, true, false, false, true, false, false, false, false, true, false, false, false, true, true, false, true, true, false, true, true, false, false, false, false, false, true,
  false, false, true, true, true, false, false, true, true, true, true, true, true, true, true, false, true, true, true, true, false, true, true, true, true, false, true, false, true, true, true, true, true, true, true,
  false, true, true, true, true, false, false, true, true, true, true, true, false, false, false, true, true, true, false, true, true, true, true, true, true, false, false, false, false, true, true, true, false, true, true,
  true, true, true, true, true, false, true, true, false, true, true, true, true, false, true, true, true, true, true, true, false, false, true, true, true, true, false, true, true, true, true, false, true, false, false,
  false, false, true, true, true, true, false, true, true, true, true, true, true, true, true, false, true, true, false, false, true, true, true, true, true, true, true, false, true, true, true, true, true, true, true,
  true, true, false, false, false, true, false, true, true, false, false, true, true, false, false, false, true, false, true, false, false, true, true, true, true, false, false, true, true, false, false, false, false, false, false,
  true, false, false, false, false, false, true, false, true, true, true, false, false, false, true, true, true, true, true, false, false, false, false, true, true, true, false, false, true, true, false, false, true, true, true,
  false, false, false, true, true, false, false, false, true, true, true, true, true, false, true, true, false, true, false, true, false, true, false, false, true, false, true, false, false, false, false, false, true, false, false,
  true, true, true, true, true, true, true, true, true, true, true, false, true, true, false, false, false, true, true, true, false, true, true, false, true, true, true, true, true, false, true, true, true, true, false,
  false, false, true, false, true, true, false, true, false, false, true, false, false, true, true, true, false, false, false, true, false, true, true, true, false, false, false, false, true, true, false, false, false, false, true,
  true, true, false, true, false, true, true, false, true, false, true, true, true, true, false, true, false, false, false, false, false, false, true, true, false, true, true, true, true, false, true, false, false, false, true,
  true, false, true, true, true, false, true, false, false, false, false, false, false, true, false, true, true, false, true, true, true, false, true, true, false, false, false, true, true, false, true, true, true, false, false,
  true, true, true, true, true, false, true, true, false, true, true, false, true, true, false, true, false, true, false, true, true, false, true, false, false, false, false, false, true, true, false, true, true, false, true,
  true, true, true, true, false, true, false, true, true, true, false, true, true, true, false, false, true, true, false, false, false, false, false, true, false, true, true, false, true, true, false, true, false, true, false,
  true, false, true, true, true, true, true, true, false, true, true, true, false, true, true, true, true, false, true, true, true, true, true, false, true, true, true, false, true, true, false, true, true, true, true,
  false, false, true, false, true, true, true, true, false, true, true, false, true, true, true, false, false, false, true, true, false, true, true, true, false, true, true, true, false, true, true, true, true, true, true,
  false, false, true, true, false, true, true, true, false, false, true, true, false, true, false, true, true, true, true, true, true, false, true, true, true, true, true, true, false, true, true, true, false, true, true,
  true, true, true, true, true, false, true, true, false, true, true, false, true, true, true, true, true, true, true, true, false, true, false, true, true, true, true, false, true, true, true, false, true, true, true,
  true, false, true, false, false, true, true, false, true, true, true, true, false, true, true, false, true, true, true, true, true, false, false, true, true, true, false, false, true, true, true, true, true, true, true,
  false, false, true, true, false, false, false, true, false, false, true, false, true, false, true, false, false, false, true, false, false, true, true, true, false, true, false, true, false, false, false, true, false, true, true,
  false, true, true, true, true, false, false, true, true, true, false, true, true, true, false, true, true, false, false, true, false, true, true, true, true, true, false, false, false, true, true, true, true, false, false,
  false, true, true, false, true, true, true, true, true, false, false, true, true, true, true, false, true, true, false, true, false, true, false, true, true, true, true, false, true, true, false, true, false, true, true,
  true, true, false, false, true, true, false, false, false, false, true, false, false, true, true, false, false, false, true, true, false, false, false, false, false, true, true, false, true, true, false, true, false, false, false,
  false, false, true, false, true, true, false, true, true, true, true, false, false, false, true, false, false, true, false, false, false, true, true, true, false, false, false, false, true, false, false, false, false, true, false,
  true, true, false, false, true, true, false, true, false, true, false, false, true, false, true, false, false, true, true, true, false, true, true, true, false, true, false, true, false, false, true, true, true, true, true,
]);
